1295
1500000
996734
996734
996734
996734
996734
996734
996734
996734
995265
995265
995265
995265
995265
995265
995265
995265
995265
995265
995265
995265
995265
995265
995265
995265
995265
995265
995265
995265
985665
985665
985665
985665
985665
985665
985665
985665
985665
979686
979686
979686
979686
979686
979686
979686
979686
979686
979686
979686
979686
979686
979686
979686
979686
979686
965146
965146
965146
965146
965146
965146
965146
965146
965146
965146
965146
965146
965146
965146
965146
965146
965146
965146
965146
956969
956969
956969
956969
956969
956969
956969
956969
956969
922571
922571
922571
922571
922571
922571
922571
922571
922571
922571
922571
922571
906296
906296
906296
906296
906296
906296
899035
899035
899035
899035
899035
899035
899035
899035
899035
899035
899035
899035
899035
899035
899035
899035
899035
899035
899035
899035
891619
891619
891619
891619
891619
890809
890809
890809
890809
890809
890809
890809
890809
890809
890809
890809
890809
890809
890809
890809
890809
890809
890809
883813
883124
883124
883124
883124
883124
883124
883124
883124
883124
883124
879047
879047
879047
879047
879047
879047
879047
879047
879047
879047
879047
879047
879047
879047
879047
879047
871162
871162
871162
871162
871162
871162
871162
871162
871162
871162
871162
871162
871162
871162
871162
871162
871162
871162
871162
870754
870754
870754
870754
870754
870754
870754
870754
870754
870754
870754
870754
870754
870754
870754
870754
865713
865713
865713
865713
865713
865713
865713
865713
865713
857602
857602
857602
857602
857602
857602
849253
841043
841043
841043
841043
841043
841043
840784
840784
840784
840784
840784
840784
840784
840784
840784
840784
840784
840784
840784
840784
840784
840784
840784
840784
840784
839380
831542
831542
831542
831542
831542
831542
831542
831542
831542
831542
831542
831542
816253
816253
816253
816253
816253
816253
815996
815996
815996
815996
815996
815996
815996
815996
815996
815996
815996
815996
815996
815996
815996
799833
799833
799833
799833
799833
799833
799833
799833
799833
799833
799833
799833
799833
799833
799833
799833
799833
799833
788920
788920
788920
788920
788920
788920
788920
788920
788920
788920
788920
788920
788920
788920
788920
788920
788920
788920
787992
787992
787992
787992
787992
787992
787992
787992
787992
787992
787992
787992
787992
787992
787992
787992
787992
787992
782627
782627
782627
782627
782627
782627
782627
782627
782627
782627
782627
782627
782627
782627
782627
782627
781904
781904
781904
781904
781904
781904
781904
781904
781904
781904
781904
781904
781904
781904
781904
781904
781904
781904
781904
781904
752857
752857
752857
752857
752857
752857
752857
752857
752857
752857
752857
752857
752857
752857
752857
752857
752857
752857
752857
748886
748886
748886
748886
748886
748886
748886
748886
748886
748886
748886
748886
748886
748886
748886
748886
748886
732338
732338
732338
732338
732338
732338
732338
732338
732338
732338
732338
732338
732338
732338
732338
732338
732338
724239
724239
724239
724239
724239
724239
724239
724239
720743
719146
717941
717941
717941
717941
717941
717941
717941
717941
717941
717941
717941
717941
717941
717941
717941
710007
710007
710007
696471
696471
696471
696471
696471
696471
696471
696471
696471
678797
678797
678797
678797
678797
678797
678797
678797
678797
678797
678797
678797
678797
678797
678797
678797
678797
676324
676324
676324
676324
676324
676324
676324
676324
676324
676324
674393
674393
674393
674393
674393
674393
674393
674393
674393
674393
674393
674393
674393
674393
674393
674393
673251
673251
673251
673251
673251
673251
673251
673251
673251
673251
673251
673251
673251
673251
673251
671121
671121
671121
671121
671121
671121
651580
651580
651580
651580
651580
646466
638965
638965
638965
638965
638965
638965
638965
638965
638965
638965
638965
638965
638965
638965
624271
624271
624271
624271
624271
624271
624271
624271
624271
624271
624271
624271
624271
624271
624271
624271
624271
624271
620538
620538
620538
620538
620538
620538
620538
620538
620538
616867
616867
616867
616867
602419
602419
602419
602419
602419
602419
602419
602419
602419
602419
602419
602419
602419
602419
602419
602419
602419
598842
598842
598842
598842
598842
598842
598842
598842
598842
598842
598842
598842
598842
590155
587260
545353
545353
545353
545353
545353
545353
542933
542933
542933
542933
542933
542933
542933
542933
542933
542933
542933
542933
542933
542933
542933
542933
542933
540577
540577
540577
540577
538545
538545
538545
515697
515697
515697
515697
515697
515697
515697
515697
515697
515697
515481
515481
515481
515481
515481
515481
515481
515481
515481
515481
515481
515481
512066
512066
512066
512066
512066
512066
509758
509758
509758
509758
509758
509758
509758
509758
509758
509758
509758
509758
509758
509758
509758
509758
509758
509758
503545
503545
503545
503545
503545
503545
503545
503545
503545
503545
501272
501272
501272
501272
501272
501272
501272
501272
501272
501272
500553
491978
491978
491978
491978
490322
490322
490322
490322
490322
490322
490322
490322
490322
490322
490322
490322
490322
488325
488325
488325
488325
488325
488325
488325
488325
488325
484303
484303
484303
484303
484303
484303
484303
484303
484303
484303
484303
484303
484303
484303
466821
466821
466821
466821
466821
466821
466821
466821
466821
466821
466821
466821
466821
466821
442488
442488
442488
442488
442488
442488
442488
442488
442488
442488
442488
442488
442488
425792
425792
425792
425792
425792
425792
413942
413942
413942
413942
413942
413942
413942
413942
403915
403915
403915
403915
403915
403915
403915
403915
403915
401354
391231
391231
391231
391231
391231
391231
391231
391231
391231
382592
382592
382592
382592
382592
382592
382592
382592
374905
374905
374905
374905
374905
371324
371324
371324
371324
371324
371324
361970
361970
361970
355768
355768
355768
355768
355768
355768
355768
355768
355768
355768
355768
355768
355768
355768
352172
352172
352172
352172
352172
352172
352172
352172
352172
352172
352172
352172
346562
342260
342260
342260
342260
342260
340120
340120
340120
340120
340120
340120
340120
340120
340120
340120
340120
335816
335816
335816
335816
335816
335816
335816
335816
335816
335816
335816
335816
335816
325725
325725
325725
325725
325725
325725
325725
325725
325725
307788
307788
307788
307788
307788
307788
307788
307788
307788
307788
307788
307788
307788
307788
307788
307788
305917
305917
305917
305917
305917
305917
305917
305917
305917
305917
305917
305917
305917
305917
305917
305917
305917
305917
304873
304873
304873
304873
304873
304873
304873
304873
304873
304873
304873
304009
304009
304009
304009
304009
301072
301072
301072
301072
301072
301072
301072
301072
301072
295415
295415
295415
295415
295415
295415
275995
275995
275995
275995
275995
275399
275399
252820
252820
252820
252820
252820
252820
252820
252820
252820
252820
252820
252411
241439
241439
241439
241439
241439
241439
241439
241439
241439
241439
241439
241439
241439
241439
241439
241439
241439
220524
220524
220524
220524
220524
220524
220524
220524
220524
220524
220524
220524
220524
220524
220524
220524
220524
220524
220524
220524
211779
211779
211779
211779
211779
210345
210345
210345
210285
210261
210261
210261
210261
210261
210261
210261
210261
210261
210261
210261
210261
210261
210261
210261
210261
210261
210261
210261
203452
203452
203452
203452
203452
203452
203452
203452
203452
203452
203452
195468
195468
195468
195468
195468
195468
195468
195468
195468
195468
195468
195468
195468
195468
195468
195468
195468
195468
195468
195468
189607
189607
189607
189607
189607
189607
189607
189607
189607
189607
188226
188226
188226
188226
188226
188226
188226
188226
188226
188226
156758
156758
156758
156758
156758
154534
154534
154534
154534
154534
154534
154534
154534
154534
154534
154534
131444
131444
131444
131444
131444
131444
131444
131444
131444
131444
131444
131444
131444
131444
131444
131444
130539
130539
130539
130539
129967
129967
129917
129917
129917
129917
129917
129917
129917
129917
129917
129917
129917
129917
129917
129917
129917
129917
128389
128389
128389
128389
128389
128389
128389
128389
128389
128389
128389
128389
128389
128389
126681
126681
126681
126681
126681
126681
126681
126681
126681
111012
111012
111012
111012
111012
111012
111012
111012
111012
111012
111012
111012
111012
111012
111012
111012
111012
111012
82788
82788
82788
82788
82788
82788
82788
82788
82788
82788
82788
82788
82788
82788
82788
82788
82788
82788
82788
82788
70001
70001
70001
70001
70001
70001
70001
70001
70001
70001
70001
70001
70001
70001
70001
70001
70001
70001
70001
70001
65456
65456
65456
65456
65456
65456
65456
65456
65456
65456
65456
65456
65456
65456
65456
65456
65456
65456
65456
65456
47258
47258
47258
47258
47258
47258
47258
47258
43373
43373
43373
43373
43373
43373
43373
43373
43373
43373
43373
43373
43373
43373
43373
30379
30379
30379
30379
19197
19197
19197
19197
19197
19197
19197
19197
19197
19197
19197
19197
19197
19197
19197
19197
19197
17552
17552
17552
13464
13464
